# Dissipative Particle Dynamics and Worm-like Chain model
# Silk assembly model, Greta Gronau 2011
# First equilibration 

units		lj

# file name
variable	name index spider_HA1B1A1B1x2134_silkworm_A1B1x0

# random number seed
variable	seed equal 11111

# shearrate
variable	shearrate equal 0.01

# temperature 
variable	T equal 1

# DPD parameters
variable	cutoff equal 1.0
variable	gamma equal 4.5

# repulsive interaction parameters
variable	maxrepWW equal 25.0
variable	maxrepAA equal 25.0
variable	maxrepGG equal 25.0
variable	maxrepAW equal 40.0 
variable	maxrepGW equal 26.0
variable	maxrepAG equal 27.0
# variable	EHB equal 3.53 # Commented to switch to tabulated potential.
# variable	hEHB equal 3.53		# Commented to switch to tabulated potential. In case different hEHB is used for 'a' between silkworm and spider

# add the repulsive interaction parameters for the sticky terminal ends
variable 	maxrepAC equal 35.0 #higher repulsion of A beads 
variable 	maxrepBC equal 35.0 #higher repulsion of B beads 
variable 	maxrepCW equal 40.0 #sticky end is hydrophillic so rep matches AW
variable	maxrepCC equal 25.0 #same self repulsion for all beads

# number of timesteps
variable	dumpfreq equal 15000
variable 	dumpfreqpull equal 15000
variable	dumpfreqstretch equal 10000 # dump frequency for stretch simulation
variable	tot_equil_step equal 210000
variable	tot_pull_step equal 420000 # Renamed variable from tot_shear_step to tot_pull_step
variable	tot_equilafter_step equal 150000
variable	tot_stretch_step equal 100000

variable	nfreq equal 5000
variable	nevery equal 1
variable	nrepeat equal ${nfreq}*0.5

timestep	0.03

atom_style	bond

# INPUT and OUTPUT
#read_data	${name}.data
read_restart equil_${seed}.restart

comm_modify mode multi cutoff/multi 1*2 3.0 cutoff/multi 3 0.0 vel yes # cutoff multi allows the communication distance for bonded atom types (1 and 2) to be communicated beyond the ghost atom communication cutoff, which equals pairwise cutoff distance + skin distance.
#comm_modify mode single vel yes cutoff 0.0 # cutoff 0.0 sets ghost atom communication cutoff to default, which is cutoff for pairwise interactions + skin distance for neighbor lists. If 'bond atoms missing on processor' is encountered, increase this cutoff distance to accommodate stretched bonds.

thermo			100
thermo_style	custom step temp ke pe press pxx pyy pzz pxy lx 

############# force field setup #########################
# pair_style	hybrid/overlay soft 1.0 dpd ${T} ${cutoff} ${seed} # Commented to switch to tabulated potential.

# pair_coeff	1 1 soft ${EHB} 1.0 # Commented to switch to tabulated potential.
# pair_coeff	4 4 soft ${EHB} 1.0 # Commented to switch to tabulated potential.
# pair_coeff	1 4 soft ${hEHB} 1.0 # Commented to switch to tabulated potential.

# Implement Tabulated Potential
pair_style hybrid/overlay dpd ${T} ${cutoff} ${seed} table linear 1001
pair_coeff 	1 1 table hbond.txt HBOND_HARMONIC ${cutoff}
pair_coeff  4 4 table hbond.txt HBOND_HARMONIC ${cutoff} # Use the same potential for silkworm bead type 4.
pair_coeff  1 4 table hbond.txt HBOND_HARMONIC ${cutoff} # Use the same potential for bonds between silkworm bead type 4 and spider silk bead type 1.

# Assign DPD parameters
pair_coeff	* * dpd 25.0 ${gamma} 1.0
pair_coeff	1 1 dpd ${maxrepAA} ${gamma} 1.0
pair_coeff	1 2 dpd ${maxrepAG} ${gamma} 1.0
pair_coeff	2 2 dpd ${maxrepGG} ${gamma} 1.0
pair_coeff	1 3 dpd ${maxrepAW} ${gamma} 1.0
pair_coeff	2 3 dpd ${maxrepGW} ${gamma} 1.0
pair_coeff	3 3 dpd ${maxrepWW} ${gamma} 1.0
pair_coeff	3 4 dpd 30.0 4.5 1.0
pair_coeff	3 5 dpd ${maxrepGW} 4.5 1.0
pair_coeff	4 5 dpd ${maxrepAG} 4.5 1.0

#add the pair coefficients for the sticky terminal end
pair_coeff	1 6 dpd ${maxrepAC} ${gamma} 1.0
pair_coeff	2 6 dpd ${maxrepBC} ${gamma} 1.0
pair_coeff	3 6 dpd ${maxrepCW} ${gamma} 1.0
pair_coeff	4 6 dpd ${maxrepAC} ${gamma} 1.0
pair_coeff	5 6 dpd ${maxrepBC} ${gamma} 1.0
pair_coeff	6 6 dpd ${maxrepCC} ${gamma} 1.0

### bond setup ###
bond_style	harmonic
bond_coeff	1 118.5 1.025
bond_coeff	2 118.5 0.778
special_bonds	lj 1.0 1.0 1.0 coul 1.0 1.0 1.0  # LAMMPS code changed so that DPD takes coul arguments

### neighbor setup
neighbor		1.0 bin
neigh_modify	delay 5 

group	chains type 1 2 4 5 6
group	water type 3

### Pull Run ###

fix 		1 all nve
# Group atoms at the left and right ends of each chain based on the configuration in the last frame of free equilibration.
variable headtailtag atomfile tag.txt
variable leftid atom "v_headtailtag>=1"
group leftend variable leftid
variable rightid atom "v_headtailtag<=-1"
group rightend variable rightid

# Add force to the two ends of each chain and rescale the temperature.
variable pullforce equal 10
variable xfleft equal -${pullforce}
variable xfright equal ${pullforce}
restart ${dumpfreq} restart1 restart2
fix 	pull1 leftend addforce ${xfleft} 0.0 0.0
fix 	pull2 rightend addforce ${xfright} 0.0 0.0
fix 	2 all temp/rescale 100 ${T} ${T} 0.05 1.0

dump	myDump-pull chains dcd ${dumpfreq} pull_${seed}.dcd
dump	myDump-pull-unwrap chains dcd ${dumpfreq} pull_${seed}_unwrap.dcd
dump_modify myDump-pull-unwrap unwrap yes

# Track stress during pull step.

compute	stress_a all stress/atom NULL
compute	stress_c chains stress/atom NULL
compute	s_a all reduce sum c_stress_a[1] c_stress_a[2] c_stress_a[3] c_stress_a[4] c_stress_a[5] c_stress_a[6]
compute	s_c chains reduce sum c_stress_c[1] c_stress_c[2] c_stress_c[3] c_stress_c[4] c_stress_c[5] c_stress_c[6]

fix 	stressout_pull_a all ave/time ${nevery} ${nrepeat} ${nfreq} c_s_a[1] c_s_a[2] c_s_a[3] c_s_a[4] c_s_a[5] c_s_a[6] file all_stress_pull_${seed}.txt
fix 	stressout_pull_c all ave/time ${nevery} ${nrepeat} ${nfreq} c_s_c[1] c_s_c[2] c_s_c[3] c_s_c[4] c_s_c[5] c_s_c[6] file chains_stress_pull_${seed}.txt

run		${tot_pull_step}

write_restart	pull_${seed}.restart
undump			myDump-pull
undump			myDump-pull-unwrap
unfix 	stressout_pull_a
unfix 	stressout_pull_c
unfix	pull1
unfix 	pull2
unfix 	2

### Equilibration after Pull to Relax stress ###

# Track stress during relaxation step.

fix 	stressout_relax_a all ave/time ${nevery} ${nrepeat} ${nfreq} c_s_a[1] c_s_a[2] c_s_a[3] c_s_a[4] c_s_a[5] c_s_a[6] file all_stress_relax_${seed}.txt
fix 	stressout_relax_c all ave/time ${nevery} ${nrepeat} ${nfreq} c_s_c[1] c_s_c[2] c_s_c[3] c_s_c[4] c_s_c[5] c_s_c[6] file chains_stress_relax_${seed}.txt

dump	myDump-equilafterpull chains dcd ${dumpfreq} equil_after_pull_${seed}.dcd
dump	myDump-equilafterpull-unwrap chains dcd ${dumpfreq} equil_after_pull_${seed}_unwrap.dcd
dump_modify 		myDump-equilafterpull-unwrap unwrap yes

run		${tot_equilafter_step}

write_restart	pull_relaxed_${seed}.restart
undump			myDump-equilafterpull
undump 			myDump-equilafterpull-unwrap
unfix 	stressout_relax_a
unfix 	stressout_relax_c

### Deform to stretch ratio 10 ###
fix		2 all deform ${nfreq} x scale 10.0 y volume z volume
dump	myDump-stretch chains dcd ${dumpfreqstretch} stretch_${seed}.dcd
dump	myDump-stretch-unwrap chains dcd ${dumpfreqstretch} stretch_${seed}_unwrap.dcd
dump_modify 	myDump-stretch-unwrap unwrap yes

#compute	stress_a all stress/atom NULL
#compute	stress_c chains stress/atom NULL
#compute	s_a all reduce sum c_stress_a[1] c_stress_a[2] c_stress_a[3] c_stress_a[4] c_stress_a[5] c_stress_a[6]
#compute	s_c chains reduce sum c_stress_c[1] c_stress_c[2] c_stress_c[3] c_stress_c[4] c_stress_c[5] c_stress_c[6]

fix		stressout_a all ave/time ${nevery} ${nrepeat} ${nfreq} c_s_a[1] c_s_a[2] c_s_a[3] c_s_a[4] c_s_a[5] c_s_a[6] file all_stress_${seed}.txt
fix		stressout_c chains ave/time ${nevery} ${nrepeat} ${nfreq} c_s_c[1] c_s_c[2] c_s_c[3] c_s_c[4] c_s_c[5] c_s_c[6] file chains_stress_${seed}.txt

run		${tot_stretch_step}

write_restart	stretch_${seed}.restart
undump	myDump-stretch
undump 	myDump-stretch-unwrap
unfix 	stressout_a
unfix 	stressout_c
unfix 	2
